148,490
148,322
356,355
415,213
681,-14
746,-8
839,624
1051,526
1066,467
888,438
786,551
695,494
766,433
663,463
417,770
829,862
681,646
607,634
533,429
427,152
470,115
561,36
598,150
567,369
624,424
663,349
628,379
829,258
681,46
196,563
364,842
899,248
921,528
1161,406
1194,240
702,427
